NAME: I3839-n30-k4
COMMENT : (Fake et al, No of trucks: 4, Optimal value: )
TYPE : CVRP
DIMENSION : 30
EDGE_WEIGHT_TYPE : EUC_2D
CAPACITY : 13
NODE_COORD_SECTION
1 855 341
2 884 720
3 307 663
4 123 481
5 109 154
6 324 324
7 503 359
8 661 987
9 827 965
10 575 424
11 296 134
12 628 913
13 14 220
14 768 419
15 303 904
16 26 628
17 931 132
18 590 588
19 117 295
20 149 663
21 292 7
22 61 59
23 259 252
24 519 126
25 854 19
26 61 664
27 735 836
28 251 510
29 535 602
30 244 27
DEMAND_SECTION
1 0
2 2
3 1
4 2
5 2
6 1
7 1
8 2
9 2
10 1
11 2
12 2
13 2
14 1
15 2
16 1
17 2
18 1
19 2
20 2
21 2
22 1
23 1
24 2
25 2
26 1
27 1
28 1
29 1
30 1
DEPOT_SECTION
 1
 -1
 EOF 